5	4
3	3	4	11	3	10	2	13	3	1	10	2	9	4	9	3	2	7	4	9	3	6
3	3	3	12	1	10	4	11	3	2	10	4	11	3	9	3	4	8	3	9	2	10
4	3	2	7	4	10	3	9	3	3	10	2	9	1	11	3	1	9	3	8	4	7	3	3	8	1	7	2	7
4	3	2	7	3	9	1	8	3	4	8	2	6	3	9	3	1	12	4	10	2	9	3	2	6	1	8	4	6
5	3	1	9	3	8	2	8	3	2	7	4	8	3	8	3	4	8	3	10	1	9	3	2	10	1	9	3	8	3	3	8	2	7	4	9
0	6	8	10	12
12	0	6	8	10
10	6	0	6	8
8	8	6	0	6
6	10	8	6	0